branch-and-cut/resultados/I080/i080-001.sol
1787
12
36 30
3 36
6 70
2 58
29 58
62 70
62 28
4 62
1 29
29 5
28 30
29 30
